NAME          MDPQsAvg.mps
ROWS
 N  OBJ
 E  S1      
 E  S2      
 E  S3      
 E  S4      
 E  NORM
COLUMNS
    V0        OBJ       -0.0000000
    V0        NORM      1.0000000 
    V1        OBJ       -81.684361
    V1        S1        -0.018315639
    V1        NORM      1.0000000 
    V2        OBJ       -590.10617
    V2        S1        -0.073262556
    V2        S2        -0.018315639
    V2        NORM      1.0000000 
    V3        OBJ       -952.00286
    V3        S1        -0.14652511
    V3        S2        -0.073262556
    V3        S3        -0.018315639
    V3        NORM      1.0000000 
    V4        OBJ       -1118.5327
    V4        S1        -0.19536681
    V4        S2        -0.14652511
    V4        S3        -0.073262556
    V4        S4        -0.018315639
    V4        NORM      1.0000000 
    V5        OBJ       -901.68436
    V5        S1        0.98168436
    V5        NORM      1.0000000 
    V6        OBJ       -910.10617
    V6        S1        0.92673744
    V6        S2        -0.018315639
    V6        NORM      1.0000000 
    V7        OBJ       -1272.0029
    V7        S1        0.85347489
    V7        S2        -0.073262556
    V7        S3        -0.018315639
    V7        NORM      1.0000000 
    V8        OBJ       -1438.5327
    V8        S1        0.80463319
    V8        S2        -0.14652511
    V8        S3        -0.073262556
    V8        S4        -0.018315639
    V8        NORM      1.0000000 
    V9        OBJ       -1730.1062
    V9        S1        -0.073262556
    V9        S2        0.98168436
    V9        NORM      1.0000000 
    V10       OBJ       -1592.0029
    V10       S1        -0.14652511
    V10       S2        0.92673744
    V10       S3        -0.018315639
    V10       NORM      1.0000000 
    V11       OBJ       -1758.5327
    V11       S1        -0.19536681
    V11       S2        0.85347489
    V11       S3        -0.073262556
    V11       S4        -0.018315639
    V11       NORM      1.0000000 
    V12       OBJ       -2412.0029
    V12       S1        -0.14652511
    V12       S2        -0.073262556
    V12       S3        0.98168436
    V12       NORM      1.0000000 
    V13       OBJ       -2078.5327
    V13       S1        -0.19536681
    V13       S2        -0.14652511
    V13       S3        0.92673744
    V13       S4        -0.018315639
    V13       NORM      1.0000000 
    V14       OBJ       -2898.5327
    V14       S1        -0.19536681
    V14       S2        -0.14652511
    V14       S3        -0.073262556
    V14       S4        0.98168436
    V14       NORM      1.0000000 
RHS
    RHS       S1        0.0000    
    RHS       S2        0.0000    
    RHS       S3        0.0000    
    RHS       S4        0.0000    
    RHS       NORM      1.0000    
ENDATA